param n := 60;
param c := 10000
param : V : p w :=
   0	  24	 351
   1	  54	 258
   2	  25	 391
   3	  93	 359
   4	  41	 259
   5	  46	 382
   6	  10	 376
   7	  82	 308
   8	  21	 316
   9	  11	 445
  10	  21	 275
  11	  87	 280
  12	  90	 426
  13	  39	 276
  14	  94	 298
  15	  54	 468
  16	  95	 259
  17	  29	 273
  18	  18	 453
  19	  89	 258
  20	  93	 289
  21	  53	 443
  22	  56	 253
  23	  49	 304
  24	  68	 380
  25	  43	 261
  26	  70	 359
  27	  83	 377
  28	  15	 304
  29	  37	 319
  30	  12	 483
  31	  98	 254
  32	   1	 263
  33	  66	 451
  34	  35	 261
  35	  85	 288
  36	  19	 373
  37	  50	 263
  38	 100	 364
  39	  92	 417
  40	  87	 276
  41	   3	 307
  42	   1	 363
  43	  85	 294
  44	  21	 343
  45	   3	 442
  46	  72	 254
  47	   1	 304
  48	  34	 412
  49	  78	 256
  50	  80	 332
  51	  67	 369
  52	  33	 262
  53	  25	 369
  54	  69	 429
  55	  69	 252
  56	  63	 319
  57	  29	 397
  58	  69	 266
  59	  33	 337
;

set E :=
   0	   1
   0	   8
   0	  12
   0	  15
   0	  22
   0	  38
   0	  40
   0	  47
   0	  53
   0	  57
   1	   9
   1	  20
   1	  25
   1	  27
   1	  33
   1	  42
   1	  44
   1	  47
   1	  51
   1	  52
   1	  54
   1	  56
   2	   3
   2	   5
   2	   8
   2	  11
   2	  17
   2	  24
   2	  26
   2	  36
   2	  37
   2	  47
   2	  56
   3	   6
   3	   7
   3	  10
   3	  16
   3	  17
   3	  20
   3	  22
   3	  30
   3	  32
   3	  36
   4	   6
   4	  18
   4	  20
   4	  27
   4	  38
   4	  40
   4	  49
   4	  50
   5	  17
   5	  18
   5	  19
   5	  27
   5	  32
   5	  38
   5	  39
   5	  41
   5	  45
   5	  47
   5	  51
   5	  56
   6	   7
   6	   8
   6	   9
   6	  11
   6	  13
   6	  15
   6	  22
   6	  24
   6	  27
   6	  35
   6	  36
   6	  46
   6	  49
   6	  54
   6	  55
   6	  58
   7	  20
   7	  22
   7	  32
   7	  37
   7	  43
   7	  50
   7	  57
   8	   9
   8	  11
   8	  22
   8	  26
   8	  36
   8	  38
   8	  48
   8	  52
   9	  14
   9	  16
   9	  22
   9	  23
   9	  29
   9	  30
   9	  37
   9	  43
   9	  48
   9	  49
   9	  53
   9	  55
  10	  12
  10	  13
  10	  14
  10	  23
  10	  24
  10	  25
  10	  27
  10	  32
  10	  40
  10	  41
  10	  45
  10	  46
  10	  53
  10	  57
  10	  59
  11	  15
  11	  19
  11	  22
  11	  29
  11	  31
  11	  34
  11	  35
  11	  44
  11	  47
  11	  49
  11	  51
  11	  53
  11	  56
  12	  17
  12	  24
  12	  26
  12	  37
  12	  46
  12	  47
  12	  57
  13	  24
  13	  29
  13	  34
  13	  46
  13	  49
  14	  15
  14	  17
  14	  18
  14	  19
  14	  31
  14	  37
  14	  58
  15	  17
  15	  27
  15	  33
  15	  36
  15	  44
  15	  48
  15	  49
  15	  51
  15	  52
  15	  53
  16	  22
  16	  26
  16	  30
  16	  35
  16	  39
  16	  44
  16	  45
  17	  21
  17	  23
  17	  25
  17	  26
  17	  31
  17	  37
  17	  46
  17	  50
  17	  54
  18	  21
  18	  26
  18	  29
  18	  31
  18	  41
  18	  45
  18	  50
  18	  51
  18	  53
  18	  54
  19	  20
  19	  30
  19	  31
  19	  43
  19	  44
  19	  46
  19	  50
  19	  59
  20	  26
  20	  30
  20	  32
  20	  33
  20	  37
  20	  42
  20	  43
  20	  46
  21	  23
  21	  35
  21	  40
  21	  55
  22	  25
  22	  28
  22	  30
  22	  31
  22	  34
  22	  36
  22	  41
  22	  47
  22	  55
  22	  56
  22	  58
  23	  27
  23	  31
  23	  36
  23	  43
  23	  47
  23	  49
  23	  55
  24	  25
  24	  28
  24	  30
  24	  36
  24	  37
  24	  40
  24	  54
  24	  59
  25	  26
  25	  27
  25	  29
  25	  42
  25	  59
  26	  27
  26	  32
  26	  34
  26	  35
  26	  40
  26	  42
  26	  44
  26	  46
  26	  47
  26	  48
  27	  29
  27	  42
  27	  44
  27	  46
  27	  47
  27	  51
  27	  55
  28	  32
  28	  37
  28	  42
  28	  43
  28	  52
  28	  58
  29	  30
  29	  31
  29	  33
  29	  41
  29	  44
  29	  45
  29	  49
  29	  50
  30	  31
  30	  33
  30	  37
  30	  41
  30	  42
  30	  44
  30	  45
  30	  52
  30	  58
  31	  37
  31	  44
  31	  47
  31	  49
  31	  52
  31	  57
  31	  59
  32	  34
  32	  45
  32	  52
  33	  43
  34	  36
  34	  42
  34	  48
  35	  36
  35	  41
  35	  42
  35	  43
  35	  45
  35	  48
  35	  58
  35	  59
  36	  37
  36	  39
  36	  41
  36	  43
  36	  45
  36	  51
  36	  52
  37	  38
  37	  43
  37	  48
  37	  54
  38	  40
  38	  41
  38	  49
  38	  51
  38	  52
  38	  58
  39	  56
  39	  57
  40	  45
  40	  51
  40	  53
  41	  43
  41	  46
  41	  52
  42	  43
  42	  45
  42	  47
  42	  57
  43	  45
  43	  47
  43	  49
  43	  53
  43	  56
  43	  58
  44	  47
  44	  51
  44	  54
  44	  59
  45	  48
  45	  58
  46	  52
  47	  56
  48	  49
  48	  50
  48	  54
  48	  55
  49	  59
  50	  51
  51	  52
  51	  54
  51	  59
  52	  55
  52	  56
  52	  57
  52	  59
  53	  56
  55	  59
;
